program_setup_time=600;
sequence_setup_time=300;
max_colors_per_job=2;
min_cycles_per_job=2;
max_cycles_per_job=30;
max_jobs=15;
num_colors=2;
num_programs=1;
num_moulds=7;
num_demands=10;
num_lines=3;
reference_makespan=62400;
reference_tardiness=555443;
reference_waste=30;
available_moulds=[8,4,10,4,4,4,4];
slots_per_program=[7];
cycle_time_for_program=[3060];
program_for_mould=[1,1,1,1,1,1,1];
line_for_mould=[1,2,1,2,2,3,1];
color_compatibility=array2d(colors, colors, [1,0,0,1]);
demand_qty=[4,7,40,8,14,27,2,3,3,2];
demand_duedate=[-50436,-50436,-50436,-50436,-50436,-50436,-50436,27649,144778,222863];
demand_color=[1,2,2,1,2,2,1,1,1,1];
demand_mould=[1,1,2,3,4,5,6,7,3,2];
